decision_x1=[0,2];
decision_x2=[0,2];
decision_x3=[0,2];
decision_x4=[0,2];
decision_x5=[0,2];
decision_x6=[0,2];
decision_x7=[0,2];
decision_x8=[0,2];
random_y1=[0,2];
random_y2=[0,2];
constraint_x2_x1=[
0,0,1.3|
0,1,4.4|
0,2,1.3|
1,0,1.3|
1,1,2.1|
1,2,9.9|
2,0,1.8|
2,1,5|
2,2,5.8|
];
constraint_x3_x1=[
0,0,4.8|
0,1,6.7|
0,2,5.2|
1,0,9.4|
1,1,1.8|
1,2,4.7|
2,0,3.3|
2,1,5.2|
2,2,0.43|
];
constraint_x4_x1=[
0,0,9.3|
0,1,7.4|
0,2,1.3|
1,0,6|
1,1,4.9|
1,2,1.1|
2,0,2.1|
2,1,4.8|
2,2,1.2|
];
constraint_x4_x2=[
0,0,2|
0,1,9.1|
0,2,9.2|
1,0,7.8|
1,1,4.2|
1,2,1.4|
2,0,4.7|
2,1,5.9|
2,2,5.4|
];
constraint_x5_x1=[
0,0,5.3|
0,1,8.1|
0,2,4.4|
1,0,8.4|
1,1,7.7|
1,2,0.68|
2,0,3.3|
2,1,7.5|
2,2,8|
];
constraint_x5_x3=[
0,0,0.87|
0,1,7.4|
0,2,0.38|
1,0,8.5|
1,1,1.5|
1,2,2.6|
2,0,0.27|
2,1,9.4|
2,2,5.8|
];
constraint_x6_x1=[
0,0,5.9|
0,1,5.2|
0,2,0.31|
1,0,7.1|
1,1,4.7|
1,2,9.2|
2,0,0.12|
2,1,1.7|
2,2,0.048|
];
constraint_x6_x2=[
0,0,2.8|
0,1,1.9|
0,2,0.88|
1,0,6.6|
1,1,6|
1,2,9.7|
2,0,6|
2,1,8.3|
2,2,7.1|
];
constraint_x6_x3=[
0,0,1.3|
0,1,5.2|
0,2,8.3|
1,0,3.7|
1,1,0.29|
1,2,9.8|
2,0,7.8|
2,1,7.7|
2,2,8.6|
];
constraint_x6_x4=[
0,0,2.8|
0,1,4.7|
0,2,1.3|
1,0,3.8|
1,1,9.5|
1,2,7.8|
2,0,6.4|
2,1,9.3|
2,2,5.3|
];
constraint_x7_x3=[
0,0,2.6|
0,1,2.2|
0,2,5.3|
1,0,0.36|
1,1,1.1|
1,2,3.4|
2,0,3.7|
2,1,9|
2,2,4|
];
constraint_x7_x4=[
0,0,8.3|
0,1,1.1|
0,2,7.9|
1,0,3.7|
1,1,3.6|
1,2,3.2|
2,0,1.6|
2,1,1|
2,2,8.1|
];
constraint_x8_x4=[
0,0,5.8|
0,1,9.3|
0,2,4.3|
1,0,2.8|
1,1,6.6|
1,2,2.6|
2,0,5.9|
2,1,9.2|
2,2,1.8|
];
constraint_x8_x7=[
0,0,1.7|
0,1,2.1|
0,2,9.9|
1,0,0.73|
1,1,5.3|
1,2,1|
2,0,3.1|
2,1,7|
2,2,4.6|
];
constraint_x1_y1=[
0,0,6.6|
0,1,5.2|
0,2,4.8|
1,0,9.9|
1,1,4.7|
1,2,5.5|
2,0,9.4|
2,1,4.8|
2,2,6.1|
];
constraint_x2_y2=[
0,0,5.3|
0,1,7|
0,2,2.9|
1,0,0.61|
1,1,3.2|
1,2,5|
2,0,0.28|
2,1,5.9|
2,2,7.3|
];
initial_distribution_y1=[0.43,0.41,0.16];
initial_distribution_y2=[0.46,0.35,0.19];
transition_y1=[
0.44,0.24,0.32|
0.46,0.043,0.5|
0.3,0.3,0.4|
];
transition_y2=[
0.11,0.31,0.58|
0.26,0.4,0.34|
0.16,0.35,0.49|
];
